NAME : netgen22-5-10
COMMENT : Generated using the function generateClusteredNetwork from the R-package netgen (Bossek,2015) - Number of clusters: 5
TYPE : TSP
DIMENSION : 22
EDGE_WEIGHT_TYPE : EUC_2D
NODE_COORD_SECTION
1 82.470753134 48.4236176149
2 84.70812584 44.7986467614
3 71.4619879358 48.1094680699
4 70.1171125132 44.6021503985
5 80.1121403766 53.0929993904
6 75.1355654013 45.935305987
7 26.6796760635 95.4854211585
8 20.7559156603 94.0358721373
9 30.8615316087 94.7183476641
10 23.0168453396 95.8718555617
11 88.4970218477 7.7960693683
12 98.5117096486 2.3294008159
13 87.5909381549 8.9709680141
14 75.988641604 3.5875132427
15 9.0956878167 73.6569882942
16 14.3601888699 75.8530216377
17 14.6714827765 60.7774924284
18 5.9779330885 69.4772016873
19 63.4027702507 21.5505325889
20 55.7470019224 27.3338794719
21 57.1553712171 29.2688593156
22 61.2037533744 24.7250796174
EOF
